1607.3 0
0 55 65 6 1 73 30 21 36 27 4 0
0 45 48 16 44 40 10 31 7 0
0 26 35 66 9 50 41 62 74 69 70 0
0 18 25 53 11 14 2 28 15 0
0 67 5 20 13 19 58 72 49 17 0
0 12 51 63 43 42 64 33 68 46 37 71 0
0 38 59 54 57 8 3 32 23 56 22 0
0 75 34 52 29 47 60 61 24 39 0
